NAME : sample5
COMMENT : Sample dataset with 5 nodes
COMMENT : Derived from Zainab
TYPE : TSP
DIMENSION : 5
EDGE_WEIGHT_TYPE : EUC_2D
NODE_COORD_SECTION
1 10.0000 20.0000
2 15.0000 25.0000
3 30.0000 15.0000
4 25.0000 10.0000
5 5.0000 5.0000
EOF
